750
[75,80,88,99,102,117,157,161,169,200,202,208,221,223,235,251,260,262,263,266,276,282,297,299,300,322,330,335,343,346,348,390,394,413,426,435,439,446,460,467,473,478,480,483,494,502,507,508,509]
[1,1,1,1,1,1,1,1,1,1,1,1,1,1,1,1,1,1,1,1,1,1,1,1,1,1,1,1,1,1,1,1,1,1,1,1,1,1,1,1,1,1,1,1,1,1,2,1,1]
